32	0

0	1	2
10	1	3
10	1	4
4	1	5
1	1	6
3	1	7
8	1	8
10	1	9
3	1	10
8	1	11
1	1	12
6	1	13
3	1	14
4	1	15
1	1	16
9	1	17
6	1	18
3	1	19
1	1	20
4	1	21
1	1	22
4	1	23
10	1	24
7	1	25
6	1	26
2	1	27
1	1	28
10	1	29
5	1	30
1	1	31
1	1	32
0	0
